\ Model _copy
\ LP format - for model browsing. Use MPS format to capture full model detail.
Maximize
  + Constant
Subject To
 R0: X_1 >= 146.2885589173147
 R1: X_1 <= 178.424670306444
 R2: X_2 >= 16.76973425723155
 R3: X_2 <= 16.96885725668997
 R4: X_3 >= -2.015907904617383
 R5: X_3 <= -2.015604506082664
 R6: X_4 >= 20.0090256729475
 R7: X_4 <= 22.38680443347017
 R8: X_5 >= -5.431646200088286
 R9: X_5 <= -4.20097389892883
 R10: X_1 <= 10
Bounds
 X_1 free
 X_2 free
 X_3 free
 X_4 free
 X_5 free
 Constant = 1
End
